n_res = 4;
rc = [ 7, 15, 13, 13 ];
n_tasks = 30;
d = [ 3, 7, 5, 2, 3, 3, 8, 3, 2, 2, 1, 4, 5, 7, 6, 8, 1, 2, 6, 6, 9, 5, 5, 3, 6, 9, 10, 3, 6, 3 ];
rr = [| 0, 0, 0, 0, 0, 0, 0, 0, 0, 4, 0, 0, 0, 0, 0, 0, 0, 0, 0, 0, 0, 0, 0, 7, 0, 0, 0, 0, 0, 0
      | 0, 0, 0, 10, 0, 0, 0, 0, 0, 0, 0, 6, 3, 0, 0, 0, 0, 0, 0, 0, 10, 1, 0, 0, 5, 0, 0, 0, 0, 5
      | 0, 5, 0, 0, 8, 0, 0, 2, 0, 0, 0, 0, 0, 0, 0, 5, 10, 0, 2, 1, 0, 0, 0, 0, 0, 0, 10, 6, 6, 0
      | 10, 0, 6, 0, 0, 10, 1, 0, 6, 0, 9, 0, 0, 7, 3, 0, 0, 3, 0, 0, 0, 0, 6, 0, 0, 10, 0, 0, 0, 0 |];
suc = [ { 7, 12, 13 },
       { 4, 5, 8 },
       { 13, 16, 17 },
       { 9, 10, 11 },
       { 6, 19, 21 },
       { 9, 16 },
       { 8, 14, 15 },
       { 23, 28, 29 },
       { 12, 13, 24 },
       { 15, 16 },
       { 14, 15, 22 },
       { 14, 26, 27 },
       { 18, 22, 23 },
       { 18, 25 },
       { 17, 23 },
       { 18, 20, 22 },
       { 19, 20, 21 },
       { 28 },
       { 25, 27, 30 },
       { 24 },
       { 24 },
       { 26, 27 },
       { 26 },
       { 25, 29, 30 },
       { 28 },
       { 30 },
       { 29 },
       {  },
       {  },
       {  } ];
